p cnf 1651
-25 -515
-26 -518
-27 -521
-28 -524
-29 -527
-30 -530
-31 -533
-32 -536
-33 -539
-34 -542
-35 -545
-36 -548
-37 -551
-38 -554
-39 -557
-40 -560
-41 -563
-42 -566
-43 -569
-44 -572
-45 -575
-46 -578
-47 -581
-48 -584
-49 585
-50 586
-51 587
-52 588
-53 589
-54 590
-55 591
-56 592
-57 593
-58 594
-59 595
-60 596
-61 -26
-61 -27
26 27 61
-62 -28
-62 -29
28 29 62
-63 -30
-63 -31
30 31 63
-64 -32
-64 -33
32 33 64
-65 -34
-65 -35
34 35 65
-66 -36
-66 -37
36 37 66
-67 -38
-67 -39
38 39 67
-68 -40
-68 -41
40 41 68
-69 -42
-69 -43
42 43 69
-70 -44
-70 -45
44 45 70
-71 -46
-71 -47
46 47 71
-72 -48
-72 -49
48 49 72
-73 -50
-73 -51
50 51 73
-74 -52
-74 -53
52 53 74
-75 -54
-75 -55
54 55 75
-76 -56
-76 -57
56 57 76
-77 -58
-77 -59
58 59 77
-78 61
-78 62
-61 -62 78
-79 63
-79 64
-63 -64 79
-80 65
-80 66
-65 -66 80
-81 67
-81 68
-67 -68 81
-82 69
-82 70
-69 -70 82
-83 71
-83 72
-71 -72 83
-84 73
-84 74
-73 -74 84
-85 75
-85 76
-75 -76 85
-86 -60
-86 77
60 -77 86
-87 78
-87 79
-78 -79 87
-88 80
-88 81
-80 -81 88
-89 82
-89 83
-82 -83 89
-90 84
-90 85
-84 -85 90
-91 87
-91 88
-87 -88 91
-92 89
-92 90
-89 -90 92
-93 91
-93 92
-91 -92 93
-94 86
-94 93
-86 -93 94
-95 -25
-95 26
25 -26 95
-96 25
-96 -26
-25 26 96
-97 -95
-97 -96
95 96 97
-98 25
-98 26
-25 -26 98
-99 -25
-99 -97
25 97 99
-100 25
-100 97
-25 -97 100
-101 -99
-101 -100
99 100 101
-102 25
-102 -97
-25 97 102
-103 -98
-103 -102
98 102 103
-104 -26
-104 27
26 -27 104
-105 26
-105 -27
-26 27 105
-106 -104
-106 -105
104 105 106
-107 26
-107 27
-26 -27 107
-108 103
-108 -106
-103 106 108
-109 -103
-109 106
103 -106 109
-110 -108
-110 -109
108 109 110
-111 -103
-111 -106
103 106 111
-112 -107
-112 -111
107 111 112
-113 -27
-113 28
27 -28 113
-114 27
-114 -28
-27 28 114
-115 -113
-115 -114
113 114 115
-116 27
-116 28
-27 -28 116
-117 112
-117 -115
-112 115 117
-118 -112
-118 115
112 -115 118
-119 -117
-119 -118
117 118 119
-120 -112
-120 -115
112 115 120
-121 -116
-121 -120
116 120 121
-122 -28
-122 29
28 -29 122
-123 28
-123 -29
-28 29 123
-124 -122
-124 -123
122 123 124
-125 28
-125 29
-28 -29 125
-126 121
-126 -124
-121 124 126
-127 -121
-127 124
121 -124 127
-128 -126
-128 -127
126 127 128
-129 -121
-129 -124
121 124 129
-130 -125
-130 -129
125 129 130
-131 -29
-131 30
29 -30 131
-132 29
-132 -30
-29 30 132
-133 -131
-133 -132
131 132 133
-134 29
-134 30
-29 -30 134
-135 130
-135 -133
-130 133 135
-136 -130
-136 133
130 -133 136
-137 -135
-137 -136
135 136 137
-138 -130
-138 -133
130 133 138
-139 -134
-139 -138
134 138 139
-140 -30
-140 31
30 -31 140
-141 30
-141 -31
-30 31 141
-142 -140
-142 -141
140 141 142
-143 30
-143 31
-30 -31 143
-144 139
-144 -142
-139 142 144
-145 -139
-145 142
139 -142 145
-146 -144
-146 -145
144 145 146
-147 -139
-147 -142
139 142 147
-148 -143
-148 -147
143 147 148
-149 -31
-149 32
31 -32 149
-150 31
-150 -32
-31 32 150
-151 -149
-151 -150
149 150 151
-152 31
-152 32
-31 -32 152
-153 148
-153 -151
-148 151 153
-154 -148
-154 151
148 -151 154
-155 -153
-155 -154
153 154 155
-156 -148
-156 -151
148 151 156
-157 -152
-157 -156
152 156 157
-158 -32
-158 33
32 -33 158
-159 32
-159 -33
-32 33 159
-160 -158
-160 -159
158 159 160
-161 32
-161 33
-32 -33 161
-162 157
-162 -160
-157 160 162
-163 -157
-163 160
157 -160 163
-164 -162
-164 -163
162 163 164
-165 -157
-165 -160
157 160 165
-166 -161
-166 -165
161 165 166
-167 -33
-167 34
33 -34 167
-168 33
-168 -34
-33 34 168
-169 -167
-169 -168
167 168 169
-170 33
-170 34
-33 -34 170
-171 166
-171 -169
-166 169 171
-172 -166
-172 169
166 -169 172
-173 -171
-173 -172
171 172 173
-174 -166
-174 -169
166 169 174
-175 -170
-175 -174
170 174 175
-176 -34
-176 35
34 -35 176
-177 34
-177 -35
-34 35 177
-178 -176
-178 -177
176 177 178
-179 34
-179 35
-34 -35 179
-180 175
-180 -178
-175 178 180
-181 -175
-181 178
175 -178 181
-182 -180
-182 -181
180 181 182
-183 -175
-183 -178
175 178 183
-184 -179
-184 -183
179 183 184
-185 -35
-185 36
35 -36 185
-186 35
-186 -36
-35 36 186
-187 -185
-187 -186
185 186 187
-188 35
-188 36
-35 -36 188
-189 184
-189 -187
-184 187 189
-190 -184
-190 187
184 -187 190
-191 -189
-191 -190
189 190 191
-192 -184
-192 -187
184 187 192
-193 -188
-193 -192
188 192 193
-194 -36
-194 37
36 -37 194
-195 36
-195 -37
-36 37 195
-196 -194
-196 -195
194 195 196
-197 36
-197 37
-36 -37 197
-198 193
-198 -196
-193 196 198
-199 -193
-199 196
193 -196 199
-200 -198
-200 -199
198 199 200
-201 -193
-201 -196
193 196 201
-202 -197
-202 -201
197 201 202
-203 -37
-203 38
37 -38 203
-204 37
-204 -38
-37 38 204
-205 -203
-205 -204
203 204 205
-206 37
-206 38
-37 -38 206
-207 202
-207 -205
-202 205 207
-208 -202
-208 205
202 -205 208
-209 -207
-209 -208
207 208 209
-210 -202
-210 -205
202 205 210
-211 -206
-211 -210
206 210 211
-212 -38
-212 39
38 -39 212
-213 38
-213 -39
-38 39 213
-214 -212
-214 -213
212 213 214
-215 38
-215 39
-38 -39 215
-216 211
-216 -214
-211 214 216
-217 -211
-217 214
211 -214 217
-218 -216
-218 -217
216 217 218
-219 -211
-219 -214
211 214 219
-220 -215
-220 -219
215 219 220
-221 -39
-221 40
39 -40 221
-222 39
-222 -40
-39 40 222
-223 -221
-223 -222
221 222 223
-224 39
-224 40
-39 -40 224
-225 220
-225 -223
-220 223 225
-226 -220
-226 223
220 -223 226
-227 -225
-227 -226
225 226 227
-228 -220
-228 -223
220 223 228
-229 -224
-229 -228
224 228 229
-230 -40
-230 41
40 -41 230
-231 40
-231 -41
-40 41 231
-232 -230
-232 -231
230 231 232
-233 40
-233 41
-40 -41 233
-234 229
-234 -232
-229 232 234
-235 -229
-235 232
229 -232 235
-236 -234
-236 -235
234 235 236
-237 -229
-237 -232
229 232 237
-238 -233
-238 -237
233 237 238
-239 -41
-239 42
41 -42 239
-240 41
-240 -42
-41 42 240
-241 -239
-241 -240
239 240 241
-242 41
-242 42
-41 -42 242
-243 238
-243 -241
-238 241 243
-244 -238
-244 241
238 -241 244
-245 -243
-245 -244
243 244 245
-246 -238
-246 -241
238 241 246
-247 -242
-247 -246
242 246 247
-248 -42
-248 43
42 -43 248
-249 42
-249 -43
-42 43 249
-250 -248
-250 -249
248 249 250
-251 42
-251 43
-42 -43 251
-252 247
-252 -250
-247 250 252
-253 -247
-253 250
247 -250 253
-254 -252
-254 -253
252 253 254
-255 -247
-255 -250
247 250 255
-256 -251
-256 -255
251 255 256
-257 -43
-257 44
43 -44 257
-258 43
-258 -44
-43 44 258
-259 -257
-259 -258
257 258 259
-260 43
-260 44
-43 -44 260
-261 256
-261 -259
-256 259 261
-262 -256
-262 259
256 -259 262
-263 -261
-263 -262
261 262 263
-264 -256
-264 -259
256 259 264
-265 -260
-265 -264
260 264 265
-266 -44
-266 45
44 -45 266
-267 44
-267 -45
-44 45 267
-268 -266
-268 -267
266 267 268
-269 44
-269 45
-44 -45 269
-270 265
-270 -268
-265 268 270
-271 -265
-271 268
265 -268 271
-272 -270
-272 -271
270 271 272
-273 -265
-273 -268
265 268 273
-274 -269
-274 -273
269 273 274
-275 -45
-275 46
45 -46 275
-276 45
-276 -46
-45 46 276
-277 -275
-277 -276
275 276 277
-278 45
-278 46
-45 -46 278
-279 274
-279 -277
-274 277 279
-280 -274
-280 277
274 -277 280
-281 -279
-281 -280
279 280 281
-282 -274
-282 -277
274 277 282
-283 -278
-283 -282
278 282 283
-284 -46
-284 47
46 -47 284
-285 46
-285 -47
-46 47 285
-286 -284
-286 -285
284 285 286
-287 46
-287 47
-46 -47 287
-288 283
-288 -286
-283 286 288
-289 -283
-289 286
283 -286 289
-290 -288
-290 -289
288 289 290
-291 -283
-291 -286
283 286 291
-292 -287
-292 -291
287 291 292
-293 -47
-293 48
47 -48 293
-294 47
-294 -48
-47 48 294
-295 -293
-295 -294
293 294 295
-296 47
-296 48
-47 -48 296
-297 292
-297 -295
-292 295 297
-298 -292
-298 295
292 -295 298
-299 -297
-299 -298
297 298 299
-300 -292
-300 -295
292 295 300
-301 -296
-301 -300
296 300 301
-302 -48
-302 49
48 -49 302
-303 48
-303 -49
-48 49 303
-304 -302
-304 -303
302 303 304
-305 48
-305 49
-48 -49 305
-306 301
-306 -304
-301 304 306
-307 -301
-307 304
301 -304 307
-308 -306
-308 -307
306 307 308
-309 -301
-309 -304
301 304 309
-310 -305
-310 -309
305 309 310
-311 -49
-311 50
49 -50 311
-312 49
-312 -50
-49 50 312
-313 -311
-313 -312
311 312 313
-314 49
-314 50
-49 -50 314
-315 310
-315 -313
-310 313 315
-316 -310
-316 313
310 -313 316
-317 -315
-317 -316
315 316 317
-318 -310
-318 -313
310 313 318
-319 -314
-319 -318
314 318 319
-320 -50
-320 51
50 -51 320
-321 50
-321 -51
-50 51 321
-322 -320
-322 -321
320 321 322
-323 50
-323 51
-50 -51 323
-324 319
-324 -322
-319 322 324
-325 -319
-325 322
319 -322 325
-326 -324
-326 -325
324 325 326
-327 -319
-327 -322
319 322 327
-328 -323
-328 -327
323 327 328
-329 -51
-329 52
51 -52 329
-330 51
-330 -52
-51 52 330
-331 -329
-331 -330
329 330 331
-332 51
-332 52
-51 -52 332
-333 328
-333 -331
-328 331 333
-334 -328
-334 331
328 -331 334
-335 -333
-335 -334
333 334 335
-336 -328
-336 -331
328 331 336
-337 -332
-337 -336
332 336 337
-338 -52
-338 53
52 -53 338
-339 52
-339 -53
-52 53 339
-340 -338
-340 -339
338 339 340
-341 52
-341 53
-52 -53 341
-342 337
-342 -340
-337 340 342
-343 -337
-343 340
337 -340 343
-344 -342
-344 -343
342 343 344
-345 -337
-345 -340
337 340 345
-346 -341
-346 -345
341 345 346
-347 -53
-347 54
53 -54 347
-348 53
-348 -54
-53 54 348
-349 -347
-349 -348
347 348 349
-350 53
-350 54
-53 -54 350
-351 346
-351 -349
-346 349 351
-352 -346
-352 349
346 -349 352
-353 -351
-353 -352
351 352 353
-354 -346
-354 -349
346 349 354
-355 -350
-355 -354
350 354 355
-356 -54
-356 55
54 -55 356
-357 54
-357 -55
-54 55 357
-358 -356
-358 -357
356 357 358
-359 54
-359 55
-54 -55 359
-360 355
-360 -358
-355 358 360
-361 -355
-361 358
355 -358 361
-362 -360
-362 -361
360 361 362
-363 -355
-363 -358
355 358 363
-364 -359
-364 -363
359 363 364
-365 -55
-365 56
55 -56 365
-366 55
-366 -56
-55 56 366
-367 -365
-367 -366
365 366 367
-368 55
-368 56
-55 -56 368
-369 364
-369 -367
-364 367 369
-370 -364
-370 367
364 -367 370
-371 -369
-371 -370
369 370 371
-372 -364
-372 -367
364 367 372
-373 -368
-373 -372
368 372 373
-374 -56
-374 57
56 -57 374
-375 56
-375 -57
-56 57 375
-376 -374
-376 -375
374 375 376
-377 56
-377 57
-56 -57 377
-378 373
-378 -376
-373 376 378
-379 -373
-379 376
373 -376 379
-380 -378
-380 -379
378 379 380
-381 -373
-381 -376
373 376 381
-382 -377
-382 -381
377 381 382
-383 -57
-383 58
57 -58 383
-384 57
-384 -58
-57 58 384
-385 -383
-385 -384
383 384 385
-386 57
-386 58
-57 -58 386
-387 382
-387 -385
-382 385 387
-388 -382
-388 385
382 -385 388
-389 -387
-389 -388
387 388 389
-390 -382
-390 -385
382 385 390
-391 -386
-391 -390
386 390 391
-392 -58
-392 59
58 -59 392
-393 58
-393 -59
-58 59 393
-394 -392
-394 -393
392 393 394
-395 58
-395 59
-58 -59 395
-396 391
-396 -394
-391 394 396
-397 -391
-397 394
391 -394 397
-398 -396
-398 -397
396 397 398
-399 -391
-399 -394
391 394 399
-400 -395
-400 -399
395 399 400
-401 -59
-401 60
59 -60 401
-402 59
-402 -60
-59 60 402
-403 -401
-403 -402
401 402 403
-404 59
-404 60
-59 -60 404
-405 400
-405 -403
-400 403 405
-406 -400
-406 403
400 -403 406
-407 -405
-407 -406
405 406 407
-408 -400
-408 -403
400 403 408
-409 -404
-409 -408
404 408 409
-410 25
-410 -101
-25 101 410
-411 -25
-411 27
25 -27 411
-412 -410
-412 -411
410 411 412
-413 25
-413 -110
-25 110 413
-414 -25
-414 28
25 -28 414
-415 -413
-415 -414
413 414 415
-416 25
-416 -119
-25 119 416
-417 -25
-417 29
25 -29 417
-418 -416
-418 -417
416 417 418
-419 25
-419 -128
-25 128 419
-420 -25
-420 30
25 -30 420
-421 -419
-421 -420
419 420 421
-422 25
-422 -137
-25 137 422
-423 -25
-423 31
25 -31 423
-424 -422
-424 -423
422 423 424
-425 25
-425 -146
-25 146 425
-426 -25
-426 32
25 -32 426
-427 -425
-427 -426
425 426 427
-428 25
-428 -155
-25 155 428
-429 -25
-429 33
25 -33 429
-430 -428
-430 -429
428 429 430
-431 25
-431 -164
-25 164 431
-432 -25
-432 34
25 -34 432
-433 -431
-433 -432
431 432 433
-434 25
-434 -173
-25 173 434
-435 -25
-435 35
25 -35 435
-436 -434
-436 -435
434 435 436
-437 25
-437 -182
-25 182 437
-438 -25
-438 36
25 -36 438
-439 -437
-439 -438
437 438 439
-440 25
-440 -191
-25 191 440
-441 -25
-441 37
25 -37 441
-442 -440
-442 -441
440 441 442
-443 25
-443 -200
-25 200 443
-444 -25
-444 38
25 -38 444
-445 -443
-445 -444
443 444 445
-446 25
-446 -209
-25 209 446
-447 -25
-447 39
25 -39 447
-448 -446
-448 -447
446 447 448
-449 25
-449 -218
-25 218 449
-450 -25
-450 40
25 -40 450
-451 -449
-451 -450
449 450 451
-452 25
-452 -227
-25 227 452
-453 -25
-453 41
25 -41 453
-454 -452
-454 -453
452 453 454
-455 25
-455 -236
-25 236 455
-456 -25
-456 42
25 -42 456
-457 -455
-457 -456
455 456 457
-458 25
-458 -245
-25 245 458
-459 -25
-459 43
25 -43 459
-460 -458
-460 -459
458 459 460
-461 25
-461 -254
-25 254 461
-462 -25
-462 44
25 -44 462
-463 -461
-463 -462
461 462 463
-464 25
-464 -263
-25 263 464
-465 -25
-465 45
25 -45 465
-466 -464
-466 -465
464 465 466
-467 25
-467 -272
-25 272 467
-468 -25
-468 46
25 -46 468
-469 -467
-469 -468
467 468 469
-470 25
-470 -281
-25 281 470
-471 -25
-471 47
25 -47 471
-472 -470
-472 -471
470 471 472
-473 25
-473 -290
-25 290 473
-474 -25
-474 48
25 -48 474
-475 -473
-475 -474
473 474 475
-476 25
-476 -299
-25 299 476
-477 -25
-477 49
25 -49 477
-478 -476
-478 -477
476 477 478
-479 25
-479 -308
-25 308 479
-480 -25
-480 50
25 -50 480
-481 -479
-481 -480
479 480 481
-482 25
-482 -317
-25 317 482
-483 -25
-483 51
25 -51 483
-484 -482
-484 -483
482 483 484
-485 25
-485 -326
-25 326 485
-486 -25
-486 52
25 -52 486
-487 -485
-487 -486
485 486 487
-488 25
-488 -335
-25 335 488
-489 -25
-489 53
25 -53 489
-490 -488
-490 -489
488 489 490
-491 25
-491 -344
-25 344 491
-492 -25
-492 54
25 -54 492
-493 -491
-493 -492
491 492 493
-494 25
-494 -353
-25 353 494
-495 -25
-495 55
25 -55 495
-496 -494
-496 -495
494 495 496
-497 25
-497 -362
-25 362 497
-498 -25
-498 56
25 -56 498
-499 -497
-499 -498
497 498 499
-500 25
-500 -371
-25 371 500
-501 -25
-501 57
25 -57 501
-502 -500
-502 -501
500 501 502
-503 25
-503 -380
-25 380 503
-504 -25
-504 58
25 -58 504
-505 -503
-505 -504
503 504 505
-506 25
-506 -389
-25 389 506
-507 -25
-507 59
25 -59 507
-508 -506
-508 -507
506 507 508
-509 25
-509 -398
-25 398 509
-510 -25
-510 60
25 -60 510
-511 -509
-511 -510
509 510 511
-512 25
-512 -407
-25 407 512
-513 1
-513 94
-1 -94 513
-514 -94
-514 95
94 -95 514
-515 -513
-515 -514
513 514 515
-516 2
-516 94
-2 -94 516
-517 -94
-517 -412
94 412 517
-518 -516
-518 -517
516 517 518
-519 3
-519 94
-3 -94 519
-520 -94
-520 -415
94 415 520
-521 -519
-521 -520
519 520 521
-522 4
-522 94
-4 -94 522
-523 -94
-523 -418
94 418 523
-524 -522
-524 -523
522 523 524
-525 5
-525 94
-5 -94 525
-526 -94
-526 -421
94 421 526
-527 -525
-527 -526
525 526 527
-528 6
-528 94
-6 -94 528
-529 -94
-529 -424
94 424 529
-530 -528
-530 -529
528 529 530
-531 7
-531 94
-7 -94 531
-532 -94
-532 -427
94 427 532
-533 -531
-533 -532
531 532 533
-534 8
-534 94
-8 -94 534
-535 -94
-535 -430
94 430 535
-536 -534
-536 -535
534 535 536
-537 9
-537 94
-9 -94 537
-538 -94
-538 -433
94 433 538
-539 -537
-539 -538
537 538 539
-540 10
-540 94
-10 -94 540
-541 -94
-541 -436
94 436 541
-542 -540
-542 -541
540 541 542
-543 11
-543 94
-11 -94 543
-544 -94
-544 -439
94 439 544
-545 -543
-545 -544
543 544 545
-546 12
-546 94
-12 -94 546
-547 -94
-547 -442
94 442 547
-548 -546
-548 -547
546 547 548
-549 13
-549 94
-13 -94 549
-550 -94
-550 -445
94 445 550
-551 -549
-551 -550
549 550 551
-552 14
-552 94
-14 -94 552
-553 -94
-553 -448
94 448 553
-554 -552
-554 -553
552 553 554
-555 15
-555 94
-15 -94 555
-556 -94
-556 -451
94 451 556
-557 -555
-557 -556
555 556 557
-558 16
-558 94
-16 -94 558
-559 -94
-559 -454
94 454 559
-560 -558
-560 -559
558 559 560
-561 17
-561 94
-17 -94 561
-562 -94
-562 -457
94 457 562
-563 -561
-563 -562
561 562 563
-564 18
-564 94
-18 -94 564
-565 -94
-565 -460
94 460 565
-566 -564
-566 -565
564 565 566
-567 19
-567 94
-19 -94 567
-568 -94
-568 -463
94 463 568
-569 -567
-569 -568
567 568 569
-570 20
-570 94
-20 -94 570
-571 -94
-571 -466
94 466 571
-572 -570
-572 -571
570 571 572
-573 21
-573 94
-21 -94 573
-574 -94
-574 -469
94 469 574
-575 -573
-575 -574
573 574 575
-576 22
-576 94
-22 -94 576
-577 -94
-577 -472
94 472 577
-578 -576
-578 -577
576 577 578
-579 23
-579 94
-23 -94 579
-580 -94
-580 -475
94 475 580
-581 -579
-581 -580
579 580 581
-582 24
-582 94
-24 -94 582
-583 -94
-583 -478
94 478 583
-584 -582
-584 -583
582 583 584
-585 -94
-585 -481
94 481 585
-586 -94
-586 -484
94 484 586
-587 -94
-587 -487
94 487 587
-588 -94
-588 -490
94 490 588
-589 -94
-589 -493
94 493 589
-590 -94
-590 -496
94 496 590
-591 -94
-591 -499
94 499 591
-592 -94
-592 -502
94 502 592
-593 -94
-593 -505
94 505 593
-594 -94
-594 -508
94 508 594
-595 -94
-595 -511
94 511 595
-596 -94
-596 512
94 -512 596
-597 -60
-597 409
60 -409 597
-598 25
-598 -597
-25 597 598
598
